p cnf 35 235
1 6 11 16 21 26 31 0
2 7 12 17 22 27 32 0
3 8 13 18 23 28 33 0
4 9 14 19 24 29 34 0
5 10 15 20 25 30 35 0
-1 -2 0
-1 -3 0
-1 -4 0
-1 -5 0
-2 -3 0
-2 -4 0
-2 -5 0
-3 -4 0
-3 -5 0
-4 -5 0
-6 -7 0
-6 -8 0
-6 -9 0
-6 -10 0
-7 -8 0
-7 -9 0
-7 -10 0
-8 -9 0
-8 -10 0
-9 -10 0
-11 -12 0
-11 -13 0
-11 -14 0
-11 -15 0
-12 -13 0
-12 -14 0
-12 -15 0
-13 -14 0
-13 -15 0
-14 -15 0
-16 -17 0
-16 -18 0
-16 -19 0
-16 -20 0
-17 -18 0
-17 -19 0
-17 -20 0
-18 -19 0
-18 -20 0
-19 -20 0
-21 -22 0
-21 -23 0
-21 -24 0
-21 -25 0
-22 -23 0
-22 -24 0
-22 -25 0
-23 -24 0
-23 -25 0
-24 -25 0
-26 -27 0
-26 -28 0
-26 -29 0
-26 -30 0
-27 -28 0
-27 -29 0
-27 -30 0
-28 -29 0
-28 -30 0
-29 -30 0
-31 -32 0
-31 -33 0
-31 -34 0
-31 -35 0
-32 -33 0
-32 -34 0
-32 -35 0
-33 -34 0
-33 -35 0
-34 -35 0
-1 -17 0
-1 -18 0
-1 -19 0
-1 -20 0
-2 -16 0
-2 -18 0
-2 -19 0
-2 -20 0
-3 -16 0
-3 -17 0
-3 -19 0
-3 -20 0
-4 -16 0
-4 -17 0
-4 -18 0
-4 -20 0
-5 -16 0
-5 -17 0
-5 -18 0
-5 -19 0
-1 -32 0
-1 -33 0
-1 -34 0
-1 -35 0
-2 -31 0
-2 -33 0
-2 -34 0
-2 -35 0
-3 -31 0
-3 -32 0
-3 -34 0
-3 -35 0
-4 -31 0
-4 -32 0
-4 -33 0
-4 -35 0
-5 -31 0
-5 -32 0
-5 -33 0
-5 -34 0
-6 -32 0
-6 -33 0
-6 -34 0
-6 -35 0
-7 -31 0
-7 -33 0
-7 -34 0
-7 -35 0
-8 -31 0
-8 -32 0
-8 -34 0
-8 -35 0
-9 -31 0
-9 -32 0
-9 -33 0
-9 -35 0
-10 -31 0
-10 -32 0
-10 -33 0
-10 -34 0
-11 -17 0
-11 -18 0
-11 -19 0
-11 -20 0
-12 -16 0
-12 -18 0
-12 -19 0
-12 -20 0
-13 -16 0
-13 -17 0
-13 -19 0
-13 -20 0
-14 -16 0
-14 -17 0
-14 -18 0
-14 -20 0
-15 -16 0
-15 -17 0
-15 -18 0
-15 -19 0
-11 -27 0
-11 -28 0
-11 -29 0
-11 -30 0
-12 -26 0
-12 -28 0
-12 -29 0
-12 -30 0
-13 -26 0
-13 -27 0
-13 -29 0
-13 -30 0
-14 -26 0
-14 -27 0
-14 -28 0
-14 -30 0
-15 -26 0
-15 -27 0
-15 -28 0
-15 -29 0
-11 -32 0
-11 -33 0
-11 -34 0
-11 -35 0
-12 -31 0
-12 -33 0
-12 -34 0
-12 -35 0
-13 -31 0
-13 -32 0
-13 -34 0
-13 -35 0
-14 -31 0
-14 -32 0
-14 -33 0
-14 -35 0
-15 -31 0
-15 -32 0
-15 -33 0
-15 -34 0
-21 -32 0
-21 -33 0
-21 -34 0
-21 -35 0
-22 -31 0
-22 -33 0
-22 -34 0
-22 -35 0
-23 -31 0
-23 -32 0
-23 -34 0
-23 -35 0
-24 -31 0
-24 -32 0
-24 -33 0
-24 -35 0
-25 -31 0
-25 -32 0
-25 -33 0
-25 -34 0
-26 -32 0
-26 -33 0
-26 -34 0
-26 -35 0
-27 -31 0
-27 -33 0
-27 -34 0
-27 -35 0
-28 -31 0
-28 -32 0
-28 -34 0
-28 -35 0
-29 -31 0
-29 -32 0
-29 -33 0
-29 -35 0
-30 -31 0
-30 -32 0
-30 -33 0
-30 -34 0
